c PicoSAT SAT Solver Version 959
c Copyright (c) 2006 - 2014 Armin Biere JKU Linz
c gcc -Wall -Wextra -DNDEBUG -O3 -fno-strict-aliasing
c
c using 2 as default phase
c
c parsing <stdin>
c parsed header 'p cnf 150 638'
c initialized 150 variables
c found 638 non trivial clauses
c
c random number generator seed 0
c 
c  seconds     variables   original    learned     agility
c         level        used      conflicts    limit          MB
c 
c s   0.0   0.0   150   0.0   638     0     0     0   0.0   0.0 
c 
c initial reduction limit 1000 clauses
c 
c +   0.0  18.7   150  94.7   638   100   100  1100   9.5   0.0 
c R   0.0  18.7   150  94.7   638   100   100  1100   9.5   0.0 
c +   0.0  13.9   150  98.7   638   221   221  1210  17.2   0.0 
c +   0.0  12.3   150  99.3   638   367   367  1331  23.4   0.1 
c N   0.0  12.1   150  99.3   638   401   401  1331  24.7   0.1 
c +   0.0  11.0   150  99.3   638   543   543  1464  27.9   0.1 
c 1   0.0  10.3   150  99.3   638   722   722  1464  30.6   0.1 
c 
c  seconds     variables   original    learned     agility
c         level        used      conflicts    limit          MB
c 
s SATISFIABLE
v -1 -2 -3 -4 5 -6 7 8 9 -10 -11 12 -13 -14 -15 16 -17 -18 19 -20 -21 -22 23 24
v 25 26 27 28 -29 -30 -31 32 -33 -34 35 -36 37 38 39 -40 41 -42 43 -44 45 -46
v -47 48 49 -50 -51 -52 53 54 -55 56 -57 58 59 -60 -61 -62 -63 64 65 -66 -67
v -68 69 70 71 72 73 74 75 -76 -77 78 79 80 81 -82 -83 -84 -85 -86 -87 88 89
v -90 -91 92 -93 -94 95 -96 -97 98 -99 -100 101 102 103 -104 -105 -106 107 -108
v 109 -110 -111 112 113 114 -115 -116 117 118 -119 -120 121 122 -123 124 125
v -126 -127 128 129 -130 -131 -132 -133 -134 -135 136 -137 -138 139 -140 141
v -142 -143 144 -145 146 -147 148 -149 150 0
c
c 0 iterations
c 2 restarts
c 0 failed literals
c 722 conflicts
c 893 decisions
c 0 fixed variables
c 6563 learned literals
c 19.3% deleted literals
c 28826 propagations
c 101837 visits
c 99.3% variables used
c 0.0 seconds in library
c 7.2 megaprops/second
c 25.5 megavisits/second
c probing 0.0 seconds 0%
c 1 simplifications
c 0 reductions
c 0.0 MB recycled
c 0.1 MB maximally allocated
c 0.004000 seconds total run time
